
Gurobi 9.1.2 (win64) logging started Tue Dec  7 13:43:50 2021

Gurobi Optimizer version 9.1.2 build v9.1.2rc0 (win64)
Thread count: 8 physical cores, 8 logical processors, using up to 8 threads
Optimize a model with 1 rows, 52 columns and 51 nonzeros
Model fingerprint: 0xd2196c5f
Variable types: 1 continuous, 51 integer (51 binary)
Coefficient statistics:
  Matrix range     [1e+00, 1e+01]
  Objective range  [1e+00, 1e+00]
  Bounds range     [1e+01, 1e+01]
  RHS range        [1e+01, 1e+01]
Presolve time: 0.00s
Presolved: 1 rows, 52 columns, 51 nonzeros
Variable types: 1 continuous, 51 integer (51 binary)

Root simplex log...

Iteration    Objective       Primal Inf.    Dual Inf.      Time
       0   -1.3836684e+01   1.018817e-01   0.000000e+00     15s
       3   -1.3836684e+01   0.000000e+00   0.000000e+00     15s

Root relaxation: objective -1.383668e+01, 3 iterations, 0.00 seconds

    Nodes    |    Current Node    |     Objective Bounds      |     Work
 Expl Unexpl |  Obj  Depth IntInf | Incumbent    BestBd   Gap | It/Node Time

     0     0  -13.83668    0    2          -  -13.83668      -     -   14s
H    0     0                       0.2436828  -13.83668  5778%     -   14s
H    0     0                      -0.1143398  -13.83668      -     -   14s
     0     0  -13.83668    0    3   -0.11434  -13.83668      -     -   15s
H    0     0                      -0.1949801  -13.83668  6996%     -   15s
     0     0  -12.86255    0    7   -0.19498  -12.86255  6497%     -   15s
     0     0  -11.65365    0    7   -0.19498  -11.65365  5877%     -   15s
     0     0  -10.90626    0    7   -0.19498  -10.90626  5494%     -   16s
     0     0  -10.44516    0    6   -0.19498  -10.44516  5257%     -   16s
     0     0  -10.44516    0    6   -0.19498  -10.44516  5257%     -   16s
     0     0   -9.52792    0    5   -0.19498   -9.52792  4787%     -   16s
     0     0   -9.52792    0    5   -0.19498   -9.52792  4787%     -   16s
     0     0   -9.22493    0    5   -0.19498   -9.22493  4631%     -   16s
     0     0   -9.14780    0    6   -0.19498   -9.14780  4592%     -   16s
     0     0   -8.94196    0    5   -0.19498   -8.94196  4486%     -   16s
     0     0   -8.94196    0    5   -0.19498   -8.94196  4486%     -   16s
     0     0   -8.94196    0    5   -0.19498   -8.94196  4486%     -   16s
     0     0   -8.94196    0    6   -0.19498   -8.94196  4486%     -   16s
     0     0   -8.94196    0    6   -0.19498   -8.94196  4486%     -   16s
     0     0   -8.94196    0    6   -0.19498   -8.94196  4486%     -   16s
     0     2   -7.66057    0    6   -0.19498   -7.66057  3829%     -   16s

Cutting planes:
  MIR: 7
  StrongCG: 1
  Lazy constraints: 14

Explored 14 nodes (126 simplex iterations) in 16.22 seconds
Thread count was 8 (of 8 available processors)

Solution count 3: -0.19498 -0.11434 0.243683 

Optimal solution found (tolerance 1.00e-04)
Best objective -1.949801177322e-01, best bound -1.949801177322e-01, gap 0.0000%

User-callback calls 193, time in user-callback 19.77 sec
